Minimize
 obj: 0 x00 + 5 x01 + 10 x02 + 2 x03 + 10 x04 + 5 x10 + 0 x11 + 5 x12 + 7 x13 + 15 x14 + 10 x20 + 5 x21 + 0 x22 + 15 x23 + 17 x24 + 2 x30 + 7 x31 + 15 x32 + 0 x33 + 9 x34 + 10 x40 + 15 x41 + 17 x42 + 9 x43 + 0 x44 + 0 u1 + 0 u2 + 0 u3 + 0 u4
Subject To
 c_up1: 30 x00 + 125 x01 + 190 x02 + 62 x03 + 250 x04 + 35 x10 + 120 x11 + 185 x12 + 67 x13 + 255 x14 + 40 x20 + 125 x21 + 180 x22 + 75 x23 + 257 x24 + 32 x30 + 127 x31 + 195 x32 + 60 x33 + 249 x34 + 40 x40 + 135 x41 + 197 x42 + 69 x43 + 240 x44 + 0 u1 + 0 u2 + 0 u3 + 0 u4 <= 480
 c_lo1: 30 x00 + 125 x01 + 190 x02 + 62 x03 + 250 x04 + 35 x10 + 120 x11 + 185 x12 + 67 x13 + 255 x14 + 40 x20 + 125 x21 + 180 x22 + 75 x23 + 257 x24 + 32 x30 + 127 x31 + 195 x32 + 60 x33 + 249 x34 + 40 x40 + 135 x41 + 197 x42 + 69 x43 + 240 x44 + 0 u1 + 0 u2 + 0 u3 + 0 u4 >= -1e+20
 c_up2: 30 x00 + 125 x01 + 190 x02 + 62 x03 + 250 x04 + 35 x10 + 120 x11 + 185 x12 + 67 x13 + 255 x14 + 40 x20 + 125 x21 + 180 x22 + 75 x23 + 257 x24 + 32 x30 + 127 x31 + 195 x32 + 60 x33 + 249 x34 + 40 x40 + 135 x41 + 197 x42 + 69 x43 + 240 x44 + 0 u1 + 0 u2 + 0 u3 + 0 u4 <= 1e+20
 c_lo2: 30 x00 + 125 x01 + 190 x02 + 62 x03 + 250 x04 + 35 x10 + 120 x11 + 185 x12 + 67 x13 + 255 x14 + 40 x20 + 125 x21 + 180 x22 + 75 x23 + 257 x24 + 32 x30 + 127 x31 + 195 x32 + 60 x33 + 249 x34 + 40 x40 + 135 x41 + 197 x42 + 69 x43 + 240 x44 + 0 u1 + 0 u2 + 0 u3 + 0 u4 >= 300
 c_up3: 0 x00 + 1 x01 + 1 x02 + 1 x03 + 1 x04 + 0 x10 + 0 x11 + 0 x12 + 0 x13 + 0 x14 + 0 x20 + 0 x21 + 0 x22 + 0 x23 + 0 x24 + 0 x30 + 0 x31 + 0 x32 + 0 x33 + 0 x34 + 0 x40 + 0 x41 + 0 x42 + 0 x43 + 0 x44 + 0 u1 + 0 u2 + 0 u3 + 0 u4 <= 1
 c_lo3: 0 x00 + 1 x01 + 1 x02 + 1 x03 + 1 x04 + 0 x10 + 0 x11 + 0 x12 + 0 x13 + 0 x14 + 0 x20 + 0 x21 + 0 x22 + 0 x23 + 0 x24 + 0 x30 + 0 x31 + 0 x32 + 0 x33 + 0 x34 + 0 x40 + 0 x41 + 0 x42 + 0 x43 + 0 x44 + 0 u1 + 0 u2 + 0 u3 + 0 u4 >= 1
 c_up4: 0 x00 + 1 x01 + 1 x02 + 1 x03 + 1 x04 + 0 x10 + 0 x11 + 0 x12 + 0 x13 + 0 x14 + 0 x20 + 0 x21 + 0 x22 + 0 x23 + 0 x24 + 0 x30 + 0 x31 + 0 x32 + 0 x33 + 0 x34 + 0 x40 + 0 x41 + 0 x42 + 0 x43 + 0 x44 + 0 u1 + 0 u2 + 0 u3 + 0 u4 <= 1
 c_lo4: 0 x00 + 1 x01 + 1 x02 + 1 x03 + 1 x04 + 0 x10 + 0 x11 + 0 x12 + 0 x13 + 0 x14 + 0 x20 + 0 x21 + 0 x22 + 0 x23 + 0 x24 + 0 x30 + 0 x31 + 0 x32 + 0 x33 + 0 x34 + 0 x40 + 0 x41 + 0 x42 + 0 x43 + 0 x44 + 0 u1 + 0 u2 + 0 u3 + 0 u4 >= 0
 c_up5: 0 x00 + 0 x01 + 0 x02 + 0 x03 + 0 x04 + 1 x10 + 0 x11 + 1 x12 + 1 x13 + 1 x14 + 0 x20 + 0 x21 + 0 x22 + 0 x23 + 0 x24 + 0 x30 + 0 x31 + 0 x32 + 0 x33 + 0 x34 + 0 x40 + 0 x41 + 0 x42 + 0 x43 + 0 x44 + 0 u1 + 0 u2 + 0 u3 + 0 u4 <= 1
 c_lo5: 0 x00 + 0 x01 + 0 x02 + 0 x03 + 0 x04 + 1 x10 + 0 x11 + 1 x12 + 1 x13 + 1 x14 + 0 x20 + 0 x21 + 0 x22 + 0 x23 + 0 x24 + 0 x30 + 0 x31 + 0 x32 + 0 x33 + 0 x34 + 0 x40 + 0 x41 + 0 x42 + 0 x43 + 0 x44 + 0 u1 + 0 u2 + 0 u3 + 0 u4 >= 0
 c_up6: 0 x00 + 0 x01 + 0 x02 + 0 x03 + 0 x04 + 0 x10 + 0 x11 + 0 x12 + 0 x13 + 0 x14 + 1 x20 + 1 x21 + 0 x22 + 1 x23 + 1 x24 + 0 x30 + 0 x31 + 0 x32 + 0 x33 + 0 x34 + 0 x40 + 0 x41 + 0 x42 + 0 x43 + 0 x44 + 0 u1 + 0 u2 + 0 u3 + 0 u4 <= 1
 c_lo6: 0 x00 + 0 x01 + 0 x02 + 0 x03 + 0 x04 + 0 x10 + 0 x11 + 0 x12 + 0 x13 + 0 x14 + 1 x20 + 1 x21 + 0 x22 + 1 x23 + 1 x24 + 0 x30 + 0 x31 + 0 x32 + 0 x33 + 0 x34 + 0 x40 + 0 x41 + 0 x42 + 0 x43 + 0 x44 + 0 u1 + 0 u2 + 0 u3 + 0 u4 >= 0
 c_up7: 0 x00 + 0 x01 + 0 x02 + 0 x03 + 0 x04 + 0 x10 + 0 x11 + 0 x12 + 0 x13 + 0 x14 + 0 x20 + 0 x21 + 0 x22 + 0 x23 + 0 x24 + 1 x30 + 1 x31 + 1 x32 + 0 x33 + 1 x34 + 0 x40 + 0 x41 + 0 x42 + 0 x43 + 0 x44 + 0 u1 + 0 u2 + 0 u3 + 0 u4 <= 1
 c_lo7: 0 x00 + 0 x01 + 0 x02 + 0 x03 + 0 x04 + 0 x10 + 0 x11 + 0 x12 + 0 x13 + 0 x14 + 0 x20 + 0 x21 + 0 x22 + 0 x23 + 0 x24 + 1 x30 + 1 x31 + 1 x32 + 0 x33 + 1 x34 + 0 x40 + 0 x41 + 0 x42 + 0 x43 + 0 x44 + 0 u1 + 0 u2 + 0 u3 + 0 u4 >= 0
 c_up8: 0 x00 + 0 x01 + 0 x02 + 0 x03 + 0 x04 + 0 x10 + 0 x11 + 0 x12 + 0 x13 + 0 x14 + 0 x20 + 0 x21 + 0 x22 + 0 x23 + 0 x24 + 0 x30 + 0 x31 + 0 x32 + 0 x33 + 0 x34 + 1 x40 + 1 x41 + 1 x42 + 1 x43 + 0 x44 + 0 u1 + 0 u2 + 0 u3 + 0 u4 <= 1
 c_lo8: 0 x00 + 0 x01 + 0 x02 + 0 x03 + 0 x04 + 0 x10 + 0 x11 + 0 x12 + 0 x13 + 0 x14 + 0 x20 + 0 x21 + 0 x22 + 0 x23 + 0 x24 + 0 x30 + 0 x31 + 0 x32 + 0 x33 + 0 x34 + 1 x40 + 1 x41 + 1 x42 + 1 x43 + 0 x44 + 0 u1 + 0 u2 + 0 u3 + 0 u4 >= 0
 c_up9: 0 x00 + 1 x01 + 1 x02 + 1 x03 + 1 x04 + -1 x10 + 0 x11 + 0 x12 + 0 x13 + 0 x14 + -1 x20 + 0 x21 + 0 x22 + 0 x23 + 0 x24 + -1 x30 + 0 x31 + 0 x32 + 0 x33 + 0 x34 + -1 x40 + 0 x41 + 0 x42 + 0 x43 + 0 x44 + 0 u1 + 0 u2 + 0 u3 + 0 u4 <= 0
 c_lo9: 0 x00 + 1 x01 + 1 x02 + 1 x03 + 1 x04 + -1 x10 + 0 x11 + 0 x12 + 0 x13 + 0 x14 + -1 x20 + 0 x21 + 0 x22 + 0 x23 + 0 x24 + -1 x30 + 0 x31 + 0 x32 + 0 x33 + 0 x34 + -1 x40 + 0 x41 + 0 x42 + 0 x43 + 0 x44 + 0 u1 + 0 u2 + 0 u3 + 0 u4 >= 0
 c_up10: 0 x00 + -1 x01 + 0 x02 + 0 x03 + 0 x04 + 1 x10 + 0 x11 + 1 x12 + 1 x13 + 1 x14 + 0 x20 + -1 x21 + 0 x22 + 0 x23 + 0 x24 + 0 x30 + -1 x31 + 0 x32 + 0 x33 + 0 x34 + 0 x40 + -1 x41 + 0 x42 + 0 x43 + 0 x44 + 0 u1 + 0 u2 + 0 u3 + 0 u4 <= 0
 c_lo10: 0 x00 + -1 x01 + 0 x02 + 0 x03 + 0 x04 + 1 x10 + 0 x11 + 1 x12 + 1 x13 + 1 x14 + 0 x20 + -1 x21 + 0 x22 + 0 x23 + 0 x24 + 0 x30 + -1 x31 + 0 x32 + 0 x33 + 0 x34 + 0 x40 + -1 x41 + 0 x42 + 0 x43 + 0 x44 + 0 u1 + 0 u2 + 0 u3 + 0 u4 >= 0
 c_up11: 0 x00 + 0 x01 + -1 x02 + 0 x03 + 0 x04 + 0 x10 + 0 x11 + -1 x12 + 0 x13 + 0 x14 + 1 x20 + 1 x21 + 0 x22 + 1 x23 + 1 x24 + 0 x30 + 0 x31 + -1 x32 + 0 x33 + 0 x34 + 0 x40 + 0 x41 + -1 x42 + 0 x43 + 0 x44 + 0 u1 + 0 u2 + 0 u3 + 0 u4 <= 0
 c_lo11: 0 x00 + 0 x01 + -1 x02 + 0 x03 + 0 x04 + 0 x10 + 0 x11 + -1 x12 + 0 x13 + 0 x14 + 1 x20 + 1 x21 + 0 x22 + 1 x23 + 1 x24 + 0 x30 + 0 x31 + -1 x32 + 0 x33 + 0 x34 + 0 x40 + 0 x41 + -1 x42 + 0 x43 + 0 x44 + 0 u1 + 0 u2 + 0 u3 + 0 u4 >= 0
 c_up12: 0 x00 + 0 x01 + 0 x02 + -1 x03 + 0 x04 + 0 x10 + 0 x11 + 0 x12 + -1 x13 + 0 x14 + 0 x20 + 0 x21 + 0 x22 + -1 x23 + 0 x24 + 1 x30 + 1 x31 + 1 x32 + 0 x33 + 1 x34 + 0 x40 + 0 x41 + 0 x42 + -1 x43 + 0 x44 + 0 u1 + 0 u2 + 0 u3 + 0 u4 <= 0
 c_lo12: 0 x00 + 0 x01 + 0 x02 + -1 x03 + 0 x04 + 0 x10 + 0 x11 + 0 x12 + -1 x13 + 0 x14 + 0 x20 + 0 x21 + 0 x22 + -1 x23 + 0 x24 + 1 x30 + 1 x31 + 1 x32 + 0 x33 + 1 x34 + 0 x40 + 0 x41 + 0 x42 + -1 x43 + 0 x44 + 0 u1 + 0 u2 + 0 u3 + 0 u4 >= 0
 c_up13: 0 x00 + 0 x01 + 0 x02 + 0 x03 + -1 x04 + 0 x10 + 0 x11 + 0 x12 + 0 x13 + -1 x14 + 0 x20 + 0 x21 + 0 x22 + 0 x23 + -1 x24 + 0 x30 + 0 x31 + 0 x32 + 0 x33 + -1 x34 + 1 x40 + 1 x41 + 1 x42 + 1 x43 + 0 x44 + 0 u1 + 0 u2 + 0 u3 + 0 u4 <= 0
 c_lo13: 0 x00 + 0 x01 + 0 x02 + 0 x03 + -1 x04 + 0 x10 + 0 x11 + 0 x12 + 0 x13 + -1 x14 + 0 x20 + 0 x21 + 0 x22 + 0 x23 + -1 x24 + 0 x30 + 0 x31 + 0 x32 + 0 x33 + -1 x34 + 1 x40 + 1 x41 + 1 x42 + 1 x43 + 0 x44 + 0 u1 + 0 u2 + 0 u3 + 0 u4 >= 0
 c_up14: 0 x00 + 0 x01 + 0 x02 + 0 x03 + 0 x04 + 0 x10 + 0 x11 + 5 x12 + 0 x13 + 0 x14 + 0 x20 + 0 x21 + 0 x22 + 0 x23 + 0 x24 + 0 x30 + 0 x31 + 0 x32 + 0 x33 + 0 x34 + 0 x40 + 0 x41 + 0 x42 + 0 x43 + 0 x44 + 1 u1 + -1 u2 + 0 u3 + 0 u4 <= 4
 c_lo14: 0 x00 + 0 x01 + 0 x02 + 0 x03 + 0 x04 + 0 x10 + 0 x11 + 5 x12 + 0 x13 + 0 x14 + 0 x20 + 0 x21 + 0 x22 + 0 x23 + 0 x24 + 0 x30 + 0 x31 + 0 x32 + 0 x33 + 0 x34 + 0 x40 + 0 x41 + 0 x42 + 0 x43 + 0 x44 + 1 u1 + -1 u2 + 0 u3 + 0 u4 >= -1e+20
 c_up15: 0 x00 + 0 x01 + 0 x02 + 0 x03 + 0 x04 + 0 x10 + 0 x11 + 0 x12 + 5 x13 + 0 x14 + 0 x20 + 0 x21 + 0 x22 + 0 x23 + 0 x24 + 0 x30 + 0 x31 + 0 x32 + 0 x33 + 0 x34 + 0 x40 + 0 x41 + 0 x42 + 0 x43 + 0 x44 + 1 u1 + 0 u2 + -1 u3 + 0 u4 <= 4
 c_lo15: 0 x00 + 0 x01 + 0 x02 + 0 x03 + 0 x04 + 0 x10 + 0 x11 + 0 x12 + 5 x13 + 0 x14 + 0 x20 + 0 x21 + 0 x22 + 0 x23 + 0 x24 + 0 x30 + 0 x31 + 0 x32 + 0 x33 + 0 x34 + 0 x40 + 0 x41 + 0 x42 + 0 x43 + 0 x44 + 1 u1 + 0 u2 + -1 u3 + 0 u4 >= -1e+20
 c_up16: 0 x00 + 0 x01 + 0 x02 + 0 x03 + 0 x04 + 0 x10 + 0 x11 + 0 x12 + 0 x13 + 5 x14 + 0 x20 + 0 x21 + 0 x22 + 0 x23 + 0 x24 + 0 x30 + 0 x31 + 0 x32 + 0 x33 + 0 x34 + 0 x40 + 0 x41 + 0 x42 + 0 x43 + 0 x44 + 1 u1 + 0 u2 + 0 u3 + -1 u4 <= 4
 c_lo16: 0 x00 + 0 x01 + 0 x02 + 0 x03 + 0 x04 + 0 x10 + 0 x11 + 0 x12 + 0 x13 + 5 x14 + 0 x20 + 0 x21 + 0 x22 + 0 x23 + 0 x24 + 0 x30 + 0 x31 + 0 x32 + 0 x33 + 0 x34 + 0 x40 + 0 x41 + 0 x42 + 0 x43 + 0 x44 + 1 u1 + 0 u2 + 0 u3 + -1 u4 >= -1e+20
 c_up17: 0 x00 + 0 x01 + 0 x02 + 0 x03 + 0 x04 + 0 x10 + 0 x11 + 0 x12 + 0 x13 + 0 x14 + 0 x20 + 5 x21 + 0 x22 + 0 x23 + 0 x24 + 0 x30 + 0 x31 + 0 x32 + 0 x33 + 0 x34 + 0 x40 + 0 x41 + 0 x42 + 0 x43 + 0 x44 + -1 u1 + 1 u2 + 0 u3 + 0 u4 <= 4
 c_lo17: 0 x00 + 0 x01 + 0 x02 + 0 x03 + 0 x04 + 0 x10 + 0 x11 + 0 x12 + 0 x13 + 0 x14 + 0 x20 + 5 x21 + 0 x22 + 0 x23 + 0 x24 + 0 x30 + 0 x31 + 0 x32 + 0 x33 + 0 x34 + 0 x40 + 0 x41 + 0 x42 + 0 x43 + 0 x44 + -1 u1 + 1 u2 + 0 u3 + 0 u4 >= -1e+20
 c_up18: 0 x00 + 0 x01 + 0 x02 + 0 x03 + 0 x04 + 0 x10 + 0 x11 + 0 x12 + 0 x13 + 0 x14 + 0 x20 + 0 x21 + 0 x22 + 5 x23 + 0 x24 + 0 x30 + 0 x31 + 0 x32 + 0 x33 + 0 x34 + 0 x40 + 0 x41 + 0 x42 + 0 x43 + 0 x44 + 0 u1 + 1 u2 + -1 u3 + 0 u4 <= 4
 c_lo18: 0 x00 + 0 x01 + 0 x02 + 0 x03 + 0 x04 + 0 x10 + 0 x11 + 0 x12 + 0 x13 + 0 x14 + 0 x20 + 0 x21 + 0 x22 + 5 x23 + 0 x24 + 0 x30 + 0 x31 + 0 x32 + 0 x33 + 0 x34 + 0 x40 + 0 x41 + 0 x42 + 0 x43 + 0 x44 + 0 u1 + 1 u2 + -1 u3 + 0 u4 >= -1e+20
 c_up19: 0 x00 + 0 x01 + 0 x02 + 0 x03 + 0 x04 + 0 x10 + 0 x11 + 0 x12 + 0 x13 + 0 x14 + 0 x20 + 0 x21 + 0 x22 + 0 x23 + 5 x24 + 0 x30 + 0 x31 + 0 x32 + 0 x33 + 0 x34 + 0 x40 + 0 x41 + 0 x42 + 0 x43 + 0 x44 + 0 u1 + 1 u2 + 0 u3 + -1 u4 <= 4
 c_lo19: 0 x00 + 0 x01 + 0 x02 + 0 x03 + 0 x04 + 0 x10 + 0 x11 + 0 x12 + 0 x13 + 0 x14 + 0 x20 + 0 x21 + 0 x22 + 0 x23 + 5 x24 + 0 x30 + 0 x31 + 0 x32 + 0 x33 + 0 x34 + 0 x40 + 0 x41 + 0 x42 + 0 x43 + 0 x44 + 0 u1 + 1 u2 + 0 u3 + -1 u4 >= -1e+20
 c_up20: 0 x00 + 0 x01 + 0 x02 + 0 x03 + 0 x04 + 0 x10 + 0 x11 + 0 x12 + 0 x13 + 0 x14 + 0 x20 + 0 x21 + 0 x22 + 0 x23 + 0 x24 + 0 x30 + 5 x31 + 0 x32 + 0 x33 + 0 x34 + 0 x40 + 0 x41 + 0 x42 + 0 x43 + 0 x44 + -1 u1 + 0 u2 + 1 u3 + 0 u4 <= 4
 c_lo20: 0 x00 + 0 x01 + 0 x02 + 0 x03 + 0 x04 + 0 x10 + 0 x11 + 0 x12 + 0 x13 + 0 x14 + 0 x20 + 0 x21 + 0 x22 + 0 x23 + 0 x24 + 0 x30 + 5 x31 + 0 x32 + 0 x33 + 0 x34 + 0 x40 + 0 x41 + 0 x42 + 0 x43 + 0 x44 + -1 u1 + 0 u2 + 1 u3 + 0 u4 >= -1e+20
 c_up21: 0 x00 + 0 x01 + 0 x02 + 0 x03 + 0 x04 + 0 x10 + 0 x11 + 0 x12 + 0 x13 + 0 x14 + 0 x20 + 0 x21 + 0 x22 + 0 x23 + 0 x24 + 0 x30 + 0 x31 + 5 x32 + 0 x33 + 0 x34 + 0 x40 + 0 x41 + 0 x42 + 0 x43 + 0 x44 + 0 u1 + -1 u2 + 1 u3 + 0 u4 <= 4
 c_lo21: 0 x00 + 0 x01 + 0 x02 + 0 x03 + 0 x04 + 0 x10 + 0 x11 + 0 x12 + 0 x13 + 0 x14 + 0 x20 + 0 x21 + 0 x22 + 0 x23 + 0 x24 + 0 x30 + 0 x31 + 5 x32 + 0 x33 + 0 x34 + 0 x40 + 0 x41 + 0 x42 + 0 x43 + 0 x44 + 0 u1 + -1 u2 + 1 u3 + 0 u4 >= -1e+20
 c_up22: 0 x00 + 0 x01 + 0 x02 + 0 x03 + 0 x04 + 0 x10 + 0 x11 + 0 x12 + 0 x13 + 0 x14 + 0 x20 + 0 x21 + 0 x22 + 0 x23 + 0 x24 + 0 x30 + 0 x31 + 0 x32 + 0 x33 + 5 x34 + 0 x40 + 0 x41 + 0 x42 + 0 x43 + 0 x44 + 0 u1 + 0 u2 + 1 u3 + -1 u4 <= 4
 c_lo22: 0 x00 + 0 x01 + 0 x02 + 0 x03 + 0 x04 + 0 x10 + 0 x11 + 0 x12 + 0 x13 + 0 x14 + 0 x20 + 0 x21 + 0 x22 + 0 x23 + 0 x24 + 0 x30 + 0 x31 + 0 x32 + 0 x33 + 5 x34 + 0 x40 + 0 x41 + 0 x42 + 0 x43 + 0 x44 + 0 u1 + 0 u2 + 1 u3 + -1 u4 >= -1e+20
 c_up23: 0 x00 + 0 x01 + 0 x02 + 0 x03 + 0 x04 + 0 x10 + 0 x11 + 0 x12 + 0 x13 + 0 x14 + 0 x20 + 0 x21 + 0 x22 + 0 x23 + 0 x24 + 0 x30 + 0 x31 + 0 x32 + 0 x33 + 0 x34 + 0 x40 + 5 x41 + 0 x42 + 0 x43 + 0 x44 + -1 u1 + 0 u2 + 0 u3 + 1 u4 <= 4
 c_lo23: 0 x00 + 0 x01 + 0 x02 + 0 x03 + 0 x04 + 0 x10 + 0 x11 + 0 x12 + 0 x13 + 0 x14 + 0 x20 + 0 x21 + 0 x22 + 0 x23 + 0 x24 + 0 x30 + 0 x31 + 0 x32 + 0 x33 + 0 x34 + 0 x40 + 5 x41 + 0 x42 + 0 x43 + 0 x44 + -1 u1 + 0 u2 + 0 u3 + 1 u4 >= -1e+20
 c_up24: 0 x00 + 0 x01 + 0 x02 + 0 x03 + 0 x04 + 0 x10 + 0 x11 + 0 x12 + 0 x13 + 0 x14 + 0 x20 + 0 x21 + 0 x22 + 0 x23 + 0 x24 + 0 x30 + 0 x31 + 0 x32 + 0 x33 + 0 x34 + 0 x40 + 0 x41 + 5 x42 + 0 x43 + 0 x44 + 0 u1 + -1 u2 + 0 u3 + 1 u4 <= 4
 c_lo24: 0 x00 + 0 x01 + 0 x02 + 0 x03 + 0 x04 + 0 x10 + 0 x11 + 0 x12 + 0 x13 + 0 x14 + 0 x20 + 0 x21 + 0 x22 + 0 x23 + 0 x24 + 0 x30 + 0 x31 + 0 x32 + 0 x33 + 0 x34 + 0 x40 + 0 x41 + 5 x42 + 0 x43 + 0 x44 + 0 u1 + -1 u2 + 0 u3 + 1 u4 >= -1e+20
 c_up25: 0 x00 + 0 x01 + 0 x02 + 0 x03 + 0 x04 + 0 x10 + 0 x11 + 0 x12 + 0 x13 + 0 x14 + 0 x20 + 0 x21 + 0 x22 + 0 x23 + 0 x24 + 0 x30 + 0 x31 + 0 x32 + 0 x33 + 0 x34 + 0 x40 + 0 x41 + 0 x42 + 5 x43 + 0 x44 + 0 u1 + 0 u2 + -1 u3 + 1 u4 <= 4
 c_lo25: 0 x00 + 0 x01 + 0 x02 + 0 x03 + 0 x04 + 0 x10 + 0 x11 + 0 x12 + 0 x13 + 0 x14 + 0 x20 + 0 x21 + 0 x22 + 0 x23 + 0 x24 + 0 x30 + 0 x31 + 0 x32 + 0 x33 + 0 x34 + 0 x40 + 0 x41 + 0 x42 + 5 x43 + 0 x44 + 0 u1 + 0 u2 + -1 u3 + 1 u4 >= -1e+20
 c_up26: 0 x00 + 0 x01 + 0 x02 + 0 x03 + 0 x04 + 0 x10 + 0 x11 + 0 x12 + 0 x13 + 0 x14 + 0 x20 + 0 x21 + 0 x22 + 0 x23 + 0 x24 + 0 x30 + 0 x31 + 0 x32 + 0 x33 + 0 x34 + 0 x40 + 0 x41 + 0 x42 + 0 x43 + 0 x44 + 1 u1 + 1 u2 + 1 u3 + 1 u4 <= 10
 c_lo26: 0 x00 + 0 x01 + 0 x02 + 0 x03 + 0 x04 + 0 x10 + 0 x11 + 0 x12 + 0 x13 + 0 x14 + 0 x20 + 0 x21 + 0 x22 + 0 x23 + 0 x24 + 0 x30 + 0 x31 + 0 x32 + 0 x33 + 0 x34 + 0 x40 + 0 x41 + 0 x42 + 0 x43 + 0 x44 + 1 u1 + 1 u2 + 1 u3 + 1 u4 >= 10
Bounds
 0 <= x00 <= 0
 0 <= x01 <= 1
 0 <= x02 <= 1
 0 <= x03 <= 1
 0 <= x04 <= 1
 0 <= x10 <= 1
 0 <= x11 <= 0
 0 <= x12 <= 1
 0 <= x13 <= 1
 0 <= x14 <= 1
 0 <= x20 <= 1
 0 <= x21 <= 1
 0 <= x22 <= 0
 0 <= x23 <= 1
 0 <= x24 <= 1
 0 <= x30 <= 1
 0 <= x31 <= 1
 0 <= x32 <= 1
 0 <= x33 <= 0
 0 <= x34 <= 1
 0 <= x40 <= 1
 0 <= x41 <= 1
 0 <= x42 <= 1
 0 <= x43 <= 1
 0 <= x44 <= 0
 1 <= u1 <= 4
 1 <= u2 <= 4
 1 <= u3 <= 4
 1 <= u4 <= 4
General
 x00
 x01
 x02
 x03
 x04
 x10
 x11
 x12
 x13
 x14
 x20
 x21
 x22
 x23
 x24
 x30
 x31
 x32
 x33
 x34
 x40
 x41
 x42
 x43
 x44
 u1
 u2
 u3
 u4
End
